Version identifier: 20.1.0.0 | 2020-11-10 | 9bedb6d68
Found incumbent of value 0.000000 after 0.00 sec. (0.00 ticks)
Tried aggregator 2 times.
MIP Presolve eliminated 89 rows and 10 columns.
MIP Presolve modified 7 coefficients.
Aggregator did 28 substitutions.
Reduced MIP has 70 rows, 75 columns, and 181 nonzeros.
Reduced MIP has 45 binaries, 0 generals, 0 SOSs, and 19 indicators.
Presolve time = 0.00 sec. (0.30 ticks)
Probing fixed 0 vars, tightened 15 bounds.
Probing changed sense of 15 constraints.
Probing time = 0.00 sec. (0.11 ticks)
Cover probing fixed 0 vars, tightened 2 bounds.
Tried aggregator 1 time.
MIP Presolve eliminated 68 rows and 69 columns.
MIP Presolve modified 45 coefficients.
Reduced MIP has 2 rows, 6 columns, and 8 nonzeros.
Reduced MIP has 6 binaries, 0 generals, 0 SOSs, and 0 indicators.
Presolve time = 0.00 sec. (0.11 ticks)
Probing time = 0.00 sec. (0.00 ticks)
Tried aggregator 1 time.
MIP Presolve eliminated 2 rows and 6 columns.
MIP Presolve modified 5 coefficients.
All rows and columns eliminated.
Presolve time = 0.00 sec. (0.00 ticks)

Root node processing (before b&c):
  Real time             =    0.01 sec. (1.56 ticks)
Parallel b&c, 10 threads:
  Real time             =    0.00 sec. (0.00 ticks)
  Sync time (average)   =    0.00 sec.
  Wait time (average)   =    0.00 sec.
                          ------------
Total (root+branch&cut) =    0.01 sec. (1.56 ticks)
